\ Model random
\ LP format - for model browsing. Use MPS format to capture full model detail.
Maximize
  7 x[1]
Subject To
 ran[0]: x[0] + 4 x[1] <= 12
 ran[1]: 19 x[0] + 9 x[1] <= 28
 ran[2]: 13 x[0] <= 10
Bounds
End
